Route #1: 1 27 21 53 3 23 52 62 58 6 1
Route #2: 1 39 54 41 4 68 30 37 33 7 25 59 1
Route #3: 1 20 64 26 24 40 12 56 51 1
Route #4: 1 16 57 34 2 32 65 36 48 61 1
Route #5: 1 8 14 47 66 44 67 1
Route #6: 1 5 28 22 31 46 13 10 49 45 1
Route #7: 1 15 63 55 17 60 35 18 1
Route #8: 1 50 38 42 9 43 1
Route #9: 1 11 19 29 1
cost 1481.7333070205063
